\Problem name: 

Minimize
OBJROW: -9 var(0) -7 var(1) -10 var(2) -7 var(3) -9 var(4) -6 var(5) -8 var(6) -4 var(7) -9 var(8)
Subject To
constr(0):  4 var(0) + 9 var(1) + 4 var(2) + var(3) + 9 var(4) + 6 var(5) + 3 var(6) + 6 var(7) + var(8) <= 40
constr(1):  3 var(0) + 7 var(1) + 8 var(2) + 7 var(3) + 6 var(4) + 3 var(5) + 5 var(6) + 9 var(7) + 4 var(8) <= 80
constr(2):  9 var(0) + 3 var(1) + 6 var(2) + 5 var(3) + 7 var(4) + var(5) + var(6) + 3 var(7) + 9 var(8) <= 40
constr(3):  5 var(0) + 9 var(1) + 6 var(2) + 5 var(3) + 9 var(4) + 7 var(5) + 8 var(6) + 7 var(7) + 8 var(8) <= 10
constr(4):  7 var(0) + 7 var(1) + 4 var(2) + var(3) + 3 var(4) + 4 var(5) + 8 var(6) + var(7) + 9 var(8) <= 10
constr(5):  var(0) + 6 var(1) + 6 var(2) + var(3) + 6 var(4) + 7 var(5) + 3 var(6) + 8 var(7) + 7 var(8) <= 10
constr(6):  6 var(0) + 6 var(1) + 8 var(2) + 6 var(3) + 10 var(4) + 8 var(5) + var(6) + 4 var(7) + 4 var(8) <= 70
constr(7):  9 var(0) + var(1) + 9 var(2) + 7 var(3) + 10 var(4) + 5 var(5) + 6 var(6) + 2 var(7) + 5 var(8) <= 10
constr(8):  2 var(0) + 7 var(1) + 6 var(2) + 5 var(3) + var(4) + var(5) + 9 var(6) + 2 var(7) + var(8) <= 20
Bounds
 0 <= var(0) <= 1
 0 <= var(1) <= 1
 0 <= var(2) <= 1
 0 <= var(3) <= 1
 0 <= var(4) <= 1
 0 <= var(5) <= 1
 0 <= var(6) <= 1
 0 <= var(7) <= 1
 0 <= var(8) <= 1
Integers
var(0) var(1) var(2) var(3) var(4) var(5) var(6) var(7) var(8) 
End
